150 151 141 140 139 136 135 134 133 132 131 130 129 137 138 128 127 126 125 124 117 122 121 120 118 119 123 71 70 69 68 67 66 65 72 73 74 75 76 64 63 61 60 59 81 82 83 57 58 56 55 53 54 52 50 51 84 85 86 87 80 79 62 78 77 88 89 90 92 93 94 97 95 96 98 99 552 553 554 555 91 46 45 47 48 49 43 44 42 39 40 41 556 557 558 559 550 551 101 100 102 103 104 105 106 116 115 114 113 112 111 110 109 108 107 542 541 543 544 547 546 545 548 549 560 561 562 563 564 565 566 567 475 476 477 478 479 480 481 482 483 485 484 536 537 539 538 540 187 188 186 182 178 177 176 174 173 172 175 171 170 169 180 179 181 183 185 184 197 196 195 194 193 192 191 190 189 227 228 229 230 231 533 532 531 530 489 488 534 535 487 486 493 492 491 490 529 528 511 510 509 513 512 527 514 515 516 506 507 508 302 301 241 300 299 298 297 321 320 319 317 318 305 306 304 303 307 308 505 504 503 502 498 501 500 499 453 452 461 462 463 464 466 467 468 469 465 496 497 519 518 520 517 522 521 523 526 525 524 494 495 470 471 472 473 474 570 569 568 21 24 25 26 27 28 29 34 33 35 38 37 36 32 30 31 22 23 12 13 14 15 20 19 18 17 16 11 10 9 8 7 6 5 4 3 2 1 0 573 572 571 460 459 458 457 456 455 454 438 437 436 435 434 433 432 430 431 429 428 427 426 420 421 422 423 424 425 382 386 387 388 389 390 392 391 393 394 397 398 399 400 404 405 406 407 408 385 383 384 409 403 402 401 360 359 358 357 355 356 412 411 410 418 419 417 413 414 416 415 353 354 352 351 350 349 348 347 362 361 363 346 345 364 365 368 369 370 372 371 396 395 375 376 377 378 379 380 381 445 444 443 442 439 440 441 446 447 448 449 450 451 312 311 310 309 313 316 314 315 374 373 322 323 324 325 326 329 328 327 367 366 342 343 344 341 340 330 331 332 333 339 338 337 336 335 334 283 284 285 286 287 280 281 282 279 278 288 289 290 277 276 275 274 273 272 271 268 269 270 292 291 293 294 295 296 267 266 265 264 263 262 258 259 261 260 257 256 255 253 254 252 251 250 249 248 242 243 244 245 247 246 238 239 240 237 236 235 234 233 232 225 226 219 218 220 221 222 224 223 217 216 215 214 213 212 211 210 209 208 207 206 205 198 199 200 201 202 204 203 165 164 166 167 163 168 162 161 160 154 155 159 156 153 157 158 145 144 143 142 146 147 148 152 149